InstancedModels/Results/StripPacking-SequencePairRuns/Logs/SUsp-010-StripPacking-10.log

Gurobi 11.0.0 (win64) logging started Thu May 16 08:59:15 2024

Set parameter LogFile to value "./Results/StripPacking-SequencePairRuns/Logs/SUsp-010-StripPacking-10.log"
Set parameter TimeLimit to value 10800
Set parameter Cuts to value 0
Set parameter Presolve to value 1
Set parameter Heuristics to value 0
Set parameter LPWarmStart to value 2
Gurobi Optimizer version 11.0.0 build v11.0.0rc2 (win64 - Windows 10.0 (19045.2))

CPU model: Intel(R) Core(TM) i9-10980XE CPU @ 3.00GHz, instruction set [SSE2|AVX|AVX2|AVX512]
Thread count: 18 physical cores, 36 logical processors, using up to 18 threads

Optimize a model with 2035 rows, 201 columns and 5780 nonzeros
Model fingerprint: 0x4765ca78
Variable types: 21 continuous, 180 integer (180 binary)
Coefficient statistics:
  Matrix range     [1e+00, 1e+04]
  Objective range  [1e+00, 1e+00]
  Bounds range     [1e+00, 1e+04]
  RHS range        [1e+00, 1e+04]

Warning: Completing partial solution with 180 unfixed non-continuous variables out of 180
User MIP start produced solution with objective 50 (0.00s)
Loaded user MIP start with objective 50

Presolve removed 365 rows and 22 columns
Presolve time: 0.00s
Presolved: 1670 rows, 179 columns, 4921 nonzeros
Variable types: 21 continuous, 158 integer (158 binary)

Root relaxation: objective 3.500000e+01, 199 iterations, 0.02 seconds (0.01 work units)

    Nodes    |    Current Node    |     Objective Bounds      |     Work
 Expl Unexpl |  Obj  Depth IntInf | Incumbent    BestBd   Gap | It/Node Time

     0     0   35.00000    0    2   50.00000   35.00000  30.0%     -    0s
     0     0   35.00000    0    2   50.00000   35.00000  30.0%     -    0s
     0     2   35.00000    0    2   50.00000   35.00000  30.0%     -    0s
*  134   131               9      44.0000000   35.00000  20.5%  15.5    0s
*  370   407              31      42.0000000   35.00000  16.7%  14.8    0s
*  794   546              26      41.0000000   35.00000  14.6%  12.7    0s
* 5515  1009              36      39.0000000   35.00000  10.3%  11.4    0s

Explored 11477 nodes (99668 simplex iterations) in 0.52 seconds (0.58 work units)
Thread count was 18 (of 36 available processors)

Solution count 5: 39 41 42 ... 50

Optimal solution found (tolerance 1.00e-04)
Best objective 3.900000000000e+01, best bound 3.900000000000e+01, gap 0.0000%

Gurobi 11.0.0 (win64) logging started Thu May 16 09:00:10 2024

Set parameter LogFile to value "./Results/StripPacking-SequencePairRuns/Logs/SUsp-010-StripPacking-10.log"
Set parameter TimeLimit to value 10800
Set parameter Cuts to value 0
Set parameter Presolve to value 1
Set parameter Heuristics to value 0
Set parameter LPWarmStart to value 2
Gurobi Optimizer version 11.0.0 build v11.0.0rc2 (win64 - Windows 10.0 (19045.2))

CPU model: Intel(R) Core(TM) i9-10980XE CPU @ 3.00GHz, instruction set [SSE2|AVX|AVX2|AVX512]
Thread count: 18 physical cores, 36 logical processors, using up to 18 threads

Optimize a model with 2035 rows, 201 columns and 5780 nonzeros
Model fingerprint: 0x4765ca78
Variable types: 21 continuous, 180 integer (180 binary)
Coefficient statistics:
  Matrix range     [1e+00, 1e+04]
  Objective range  [1e+00, 1e+00]
  Bounds range     [1e+00, 1e+04]
  RHS range        [1e+00, 1e+04]

Warning: Completing partial solution with 180 unfixed non-continuous variables out of 180
User MIP start produced solution with objective 50 (0.00s)
Loaded user MIP start with objective 50

Presolve removed 365 rows and 22 columns
Presolve time: 0.02s
Presolved: 1670 rows, 179 columns, 4921 nonzeros
Variable types: 21 continuous, 158 integer (158 binary)

Root relaxation: objective 3.500000e+01, 199 iterations, 0.02 seconds (0.01 work units)

    Nodes    |    Current Node    |     Objective Bounds      |     Work
 Expl Unexpl |  Obj  Depth IntInf | Incumbent    BestBd   Gap | It/Node Time

     0     0   35.00000    0    2   50.00000   35.00000  30.0%     -    0s
     0     0   35.00000    0    2   50.00000   35.00000  30.0%     -    0s
     0     2   35.00000    0    2   50.00000   35.00000  30.0%     -    0s
*  134   131               9      44.0000000   35.00000  20.5%  15.5    0s
*  370   407              31      42.0000000   35.00000  16.7%  14.8    0s
*  794   546              26      41.0000000   35.00000  14.6%  12.7    0s
* 5515  1009              36      39.0000000   35.00000  10.3%  11.4    0s

Explored 11477 nodes (99668 simplex iterations) in 0.49 seconds (0.58 work units)
Thread count was 18 (of 36 available processors)

Solution count 5: 39 41 42 ... 50

Optimal solution found (tolerance 1.00e-04)
Best objective 3.900000000000e+01, best bound 3.900000000000e+01, gap 0.0000%

Gurobi 11.0.0 (win64) logging started Thu May 16 09:01:12 2024

Set parameter LogFile to value "./Results/StripPacking-SequencePairRuns/Logs/SUsp-010-StripPacking-10.log"
Set parameter TimeLimit to value 10800
Set parameter Cuts to value 0
Set parameter Presolve to value 1
Set parameter Heuristics to value 0
Set parameter LPWarmStart to value 2
Gurobi Optimizer version 11.0.0 build v11.0.0rc2 (win64 - Windows 10.0 (19045.2))

CPU model: Intel(R) Core(TM) i9-10980XE CPU @ 3.00GHz, instruction set [SSE2|AVX|AVX2|AVX512]
Thread count: 18 physical cores, 36 logical processors, using up to 18 threads

Optimize a model with 2035 rows, 201 columns and 5780 nonzeros
Model fingerprint: 0x4765ca78
Variable types: 21 continuous, 180 integer (180 binary)
Coefficient statistics:
  Matrix range     [1e+00, 1e+04]
  Objective range  [1e+00, 1e+00]
  Bounds range     [1e+00, 1e+04]
  RHS range        [1e+00, 1e+04]

Warning: Completing partial solution with 180 unfixed non-continuous variables out of 180
User MIP start produced solution with objective 50 (0.00s)
Loaded user MIP start with objective 50

Presolve removed 365 rows and 22 columns
Presolve time: 0.02s
Presolved: 1670 rows, 179 columns, 4921 nonzeros
Variable types: 21 continuous, 158 integer (158 binary)

Root relaxation: objective 3.500000e+01, 199 iterations, 0.02 seconds (0.01 work units)

    Nodes    |    Current Node    |     Objective Bounds      |     Work
 Expl Unexpl |  Obj  Depth IntInf | Incumbent    BestBd   Gap | It/Node Time

     0     0   35.00000    0    2   50.00000   35.00000  30.0%     -    0s
     0     0   35.00000    0    2   50.00000   35.00000  30.0%     -    0s
     0     2   35.00000    0    2   50.00000   35.00000  30.0%     -    0s
*  134   131               9      44.0000000   35.00000  20.5%  15.5    0s
*  370   407              31      42.0000000   35.00000  16.7%  14.8    0s
*  794   546              26      41.0000000   35.00000  14.6%  12.7    0s
* 5515  1009              36      39.0000000   35.00000  10.3%  11.4    0s

Explored 11477 nodes (99668 simplex iterations) in 0.47 seconds (0.58 work units)
Thread count was 18 (of 36 available processors)

Solution count 5: 39 41 42 ... 50

Optimal solution found (tolerance 1.00e-04)
Best objective 3.900000000000e+01, best bound 3.900000000000e+01, gap 0.0000%

Gurobi 11.0.0 (win64) logging started Thu May 16 09:02:39 2024

Set parameter LogFile to value "./Results/StripPacking-SequencePairRuns/Logs/SUsp-010-StripPacking-10.log"
Set parameter TimeLimit to value 10800
Set parameter Cuts to value 0
Set parameter Presolve to value 1
Set parameter Heuristics to value 0
Set parameter LPWarmStart to value 2
Gurobi Optimizer version 11.0.0 build v11.0.0rc2 (win64 - Windows 10.0 (19045.2))

CPU model: Intel(R) Core(TM) i9-10980XE CPU @ 3.00GHz, instruction set [SSE2|AVX|AVX2|AVX512]
Thread count: 18 physical cores, 36 logical processors, using up to 18 threads

Optimize a model with 2035 rows, 201 columns and 5780 nonzeros
Model fingerprint: 0x4765ca78
Variable types: 21 continuous, 180 integer (180 binary)
Coefficient statistics:
  Matrix range     [1e+00, 1e+04]
  Objective range  [1e+00, 1e+00]
  Bounds range     [1e+00, 1e+04]
  RHS range        [1e+00, 1e+04]

Warning: Completing partial solution with 180 unfixed non-continuous variables out of 180
User MIP start produced solution with objective 50 (0.00s)
Loaded user MIP start with objective 50

Presolve removed 365 rows and 22 columns
Presolve time: 0.02s
Presolved: 1670 rows, 179 columns, 4921 nonzeros
Variable types: 21 continuous, 158 integer (158 binary)

Root relaxation: objective 3.500000e+01, 199 iterations, 0.00 seconds (0.01 work units)

    Nodes    |    Current Node    |     Objective Bounds      |     Work
 Expl Unexpl |  Obj  Depth IntInf | Incumbent    BestBd   Gap | It/Node Time

     0     0   35.00000    0    2   50.00000   35.00000  30.0%     -    0s
     0     0   35.00000    0    2   50.00000   35.00000  30.0%     -    0s
     0     2   35.00000    0    2   50.00000   35.00000  30.0%     -    0s
*  134   131               9      44.0000000   35.00000  20.5%  15.5    0s
*  370   407              31      42.0000000   35.00000  16.7%  14.8    0s
*  794   546              26      41.0000000   35.00000  14.6%  12.7    0s
* 5515  1009              36      39.0000000   35.00000  10.3%  11.4    0s

Explored 11477 nodes (99668 simplex iterations) in 0.47 seconds (0.58 work units)
Thread count was 18 (of 36 available processors)

Solution count 5: 39 41 42 ... 50

Optimal solution found (tolerance 1.00e-04)
Best objective 3.900000000000e+01, best bound 3.900000000000e+01, gap 0.0000%

Gurobi 11.0.0 (win64) logging started Thu May 16 09:03:01 2024

Set parameter LogFile to value "./Results/StripPacking-SequencePairRuns/Logs/SUsp-010-StripPacking-10.log"
Set parameter TimeLimit to value 10800
Set parameter Cuts to value 0
Set parameter Presolve to value 1
Set parameter Heuristics to value 0
Set parameter LPWarmStart to value 2
Gurobi Optimizer version 11.0.0 build v11.0.0rc2 (win64 - Windows 10.0 (19045.2))

CPU model: Intel(R) Core(TM) i9-10980XE CPU @ 3.00GHz, instruction set [SSE2|AVX|AVX2|AVX512]
Thread count: 18 physical cores, 36 logical processors, using up to 18 threads

Optimize a model with 2035 rows, 201 columns and 5780 nonzeros
Model fingerprint: 0x4765ca78
Variable types: 21 continuous, 180 integer (180 binary)
Coefficient statistics:
  Matrix range     [1e+00, 1e+04]
  Objective range  [1e+00, 1e+00]
  Bounds range     [1e+00, 1e+04]
  RHS range        [1e+00, 1e+04]

Warning: Completing partial solution with 180 unfixed non-continuous variables out of 180
User MIP start produced solution with objective 50 (0.00s)
Loaded user MIP start with objective 50

Presolve removed 365 rows and 22 columns
Presolve time: 0.00s
Presolved: 1670 rows, 179 columns, 4921 nonzeros
Variable types: 21 continuous, 158 integer (158 binary)

Root relaxation: objective 3.500000e+01, 199 iterations, 0.00 seconds (0.01 work units)

    Nodes    |    Current Node    |     Objective Bounds      |     Work
 Expl Unexpl |  Obj  Depth IntInf | Incumbent    BestBd   Gap | It/Node Time

     0     0   35.00000    0    2   50.00000   35.00000  30.0%     -    0s
     0     0   35.00000    0    2   50.00000   35.00000  30.0%     -    0s
     0     2   35.00000    0    2   50.00000   35.00000  30.0%     -    0s
*  134   131               9      44.0000000   35.00000  20.5%  15.5    0s
*  370   407              31      42.0000000   35.00000  16.7%  14.8    0s
*  794   546              26      41.0000000   35.00000  14.6%  12.7    0s
* 5515  1009              36      39.0000000   35.00000  10.3%  11.4    0s

Explored 11477 nodes (99668 simplex iterations) in 0.45 seconds (0.58 work units)
Thread count was 18 (of 36 available processors)

Solution count 5: 39 41 42 ... 50

Optimal solution found (tolerance 1.00e-04)
Best objective 3.900000000000e+01, best bound 3.900000000000e+01, gap 0.0000%

Gurobi 11.0.0 (win64) logging started Thu May 16 09:08:17 2024

Set parameter LogFile to value "./Results/StripPacking-SequencePairRuns/Logs/SUsp-010-StripPacking-10.log"
Set parameter TimeLimit to value 10800
Set parameter Cuts to value 0
Set parameter Presolve to value 1
Set parameter Heuristics to value 0
Set parameter LPWarmStart to value 2
Gurobi Optimizer version 11.0.0 build v11.0.0rc2 (win64 - Windows 10.0 (19045.2))

CPU model: Intel(R) Core(TM) i9-10980XE CPU @ 3.00GHz, instruction set [SSE2|AVX|AVX2|AVX512]
Thread count: 18 physical cores, 36 logical processors, using up to 18 threads

Optimize a model with 2035 rows, 201 columns and 5780 nonzeros
Model fingerprint: 0x4765ca78
Variable types: 21 continuous, 180 integer (180 binary)
Coefficient statistics:
  Matrix range     [1e+00, 1e+04]
  Objective range  [1e+00, 1e+00]
  Bounds range     [1e+00, 1e+04]
  RHS range        [1e+00, 1e+04]

Warning: Completing partial solution with 180 unfixed non-continuous variables out of 180
User MIP start produced solution with objective 50 (0.00s)
Loaded user MIP start with objective 50

Presolve removed 365 rows and 22 columns
Presolve time: 0.02s
Presolved: 1670 rows, 179 columns, 4921 nonzeros
Variable types: 21 continuous, 158 integer (158 binary)

Root relaxation: objective 3.500000e+01, 199 iterations, 0.02 seconds (0.01 work units)

    Nodes    |    Current Node    |     Objective Bounds      |     Work
 Expl Unexpl |  Obj  Depth IntInf | Incumbent    BestBd   Gap | It/Node Time

     0     0   35.00000    0    2   50.00000   35.00000  30.0%     -    0s
     0     0   35.00000    0    2   50.00000   35.00000  30.0%     -    0s
     0     2   35.00000    0    2   50.00000   35.00000  30.0%     -    0s
*  134   131               9      44.0000000   35.00000  20.5%  15.5    0s
*  370   407              31      42.0000000   35.00000  16.7%  14.8    0s
*  794   546              26      41.0000000   35.00000  14.6%  12.7    0s
* 5515  1009              36      39.0000000   35.00000  10.3%  11.4    0s

Explored 11477 nodes (99668 simplex iterations) in 0.48 seconds (0.58 work units)
Thread count was 18 (of 36 available processors)

Solution count 5: 39 41 42 ... 50

Optimal solution found (tolerance 1.00e-04)
Best objective 3.900000000000e+01, best bound 3.900000000000e+01, gap 0.0000%

Gurobi 11.0.0 (win64) logging started Thu May 16 09:12:37 2024

Set parameter LogFile to value "./Results/StripPacking-SequencePairRuns/Logs/SUsp-010-StripPacking-10.log"
Set parameter TimeLimit to value 10800
Set parameter Cuts to value 0
Set parameter Presolve to value 1
Set parameter Heuristics to value 0
Set parameter LPWarmStart to value 2
Gurobi Optimizer version 11.0.0 build v11.0.0rc2 (win64 - Windows 10.0 (19045.2))

CPU model: Intel(R) Core(TM) i9-10980XE CPU @ 3.00GHz, instruction set [SSE2|AVX|AVX2|AVX512]
Thread count: 18 physical cores, 36 logical processors, using up to 18 threads

Optimize a model with 2035 rows, 201 columns and 5780 nonzeros
Model fingerprint: 0x4765ca78
Variable types: 21 continuous, 180 integer (180 binary)
Coefficient statistics:
  Matrix range     [1e+00, 1e+04]
  Objective range  [1e+00, 1e+00]
  Bounds range     [1e+00, 1e+04]
  RHS range        [1e+00, 1e+04]

Warning: Completing partial solution with 180 unfixed non-continuous variables out of 180
User MIP start produced solution with objective 50 (0.00s)
Loaded user MIP start with objective 50

Presolve removed 365 rows and 22 columns
Presolve time: 0.02s
Presolved: 1670 rows, 179 columns, 4921 nonzeros
Variable types: 21 continuous, 158 integer (158 binary)

Root relaxation: objective 3.500000e+01, 199 iterations, 0.02 seconds (0.01 work units)

    Nodes    |    Current Node    |     Objective Bounds      |     Work
 Expl Unexpl |  Obj  Depth IntInf | Incumbent    BestBd   Gap | It/Node Time

     0     0   35.00000    0    2   50.00000   35.00000  30.0%     -    0s
     0     0   35.00000    0    2   50.00000   35.00000  30.0%     -    0s
     0     2   35.00000    0    2   50.00000   35.00000  30.0%     -    0s
*  134   131               9      44.0000000   35.00000  20.5%  15.5    0s
*  370   407              31      42.0000000   35.00000  16.7%  14.8    0s
*  794   546              26      41.0000000   35.00000  14.6%  12.7    0s
* 5515  1009              36      39.0000000   35.00000  10.3%  11.4    0s

Explored 11477 nodes (99668 simplex iterations) in 0.48 seconds (0.58 work units)
Thread count was 18 (of 36 available processors)

Solution count 5: 39 41 42 ... 50

Optimal solution found (tolerance 1.00e-04)
Best objective 3.900000000000e+01, best bound 3.900000000000e+01, gap 0.0000%

Gurobi 11.0.0 (win64) logging started Thu May 16 09:12:49 2024

Set parameter LogFile to value "./Results/StripPacking-SequencePairRuns/Logs/SUsp-010-StripPacking-10.log"
Set parameter TimeLimit to value 10800
Set parameter Cuts to value 0
Set parameter Presolve to value 1
Set parameter Heuristics to value 0
Set parameter LPWarmStart to value 2
Gurobi Optimizer version 11.0.0 build v11.0.0rc2 (win64 - Windows 10.0 (19045.2))

CPU model: Intel(R) Core(TM) i9-10980XE CPU @ 3.00GHz, instruction set [SSE2|AVX|AVX2|AVX512]
Thread count: 18 physical cores, 36 logical processors, using up to 18 threads

Optimize a model with 2035 rows, 201 columns and 5780 nonzeros
Model fingerprint: 0x4765ca78
Variable types: 21 continuous, 180 integer (180 binary)
Coefficient statistics:
  Matrix range     [1e+00, 1e+04]
  Objective range  [1e+00, 1e+00]
  Bounds range     [1e+00, 1e+04]
  RHS range        [1e+00, 1e+04]

Warning: Completing partial solution with 180 unfixed non-continuous variables out of 180
User MIP start produced solution with objective 50 (0.00s)
Loaded user MIP start with objective 50

Presolve removed 365 rows and 22 columns
Presolve time: 0.01s
Presolved: 1670 rows, 179 columns, 4921 nonzeros
Variable types: 21 continuous, 158 integer (158 binary)

Root relaxation: objective 3.500000e+01, 199 iterations, 0.00 seconds (0.01 work units)

    Nodes    |    Current Node    |     Objective Bounds      |     Work
 Expl Unexpl |  Obj  Depth IntInf | Incumbent    BestBd   Gap | It/Node Time

     0     0   35.00000    0    2   50.00000   35.00000  30.0%     -    0s
     0     0   35.00000    0    2   50.00000   35.00000  30.0%     -    0s
     0     2   35.00000    0    2   50.00000   35.00000  30.0%     -    0s
*  134   131               9      44.0000000   35.00000  20.5%  15.5    0s
*  370   407              31      42.0000000   35.00000  16.7%  14.8    0s
*  794   546              26      41.0000000   35.00000  14.6%  12.7    0s
* 5515  1009              36      39.0000000   35.00000  10.3%  11.4    0s

Explored 11477 nodes (99668 simplex iterations) in 0.50 seconds (0.58 work units)
Thread count was 18 (of 36 available processors)

Solution count 5: 39 41 42 ... 50

Optimal solution found (tolerance 1.00e-04)
Best objective 3.900000000000e+01, best bound 3.900000000000e+01, gap 0.0000%

Gurobi 11.0.0 (win64) logging started Thu May 16 09:13:06 2024

Set parameter LogFile to value "./Results/StripPacking-SequencePairRuns/Logs/SUsp-010-StripPacking-10.log"
Set parameter TimeLimit to value 10800
Set parameter Cuts to value 0
Set parameter Presolve to value 1
Set parameter Heuristics to value 0
Set parameter LPWarmStart to value 2
Gurobi Optimizer version 11.0.0 build v11.0.0rc2 (win64 - Windows 10.0 (19045.2))

CPU model: Intel(R) Core(TM) i9-10980XE CPU @ 3.00GHz, instruction set [SSE2|AVX|AVX2|AVX512]
Thread count: 18 physical cores, 36 logical processors, using up to 18 threads

Optimize a model with 2035 rows, 201 columns and 5780 nonzeros
Model fingerprint: 0x4765ca78
Variable types: 21 continuous, 180 integer (180 binary)
Coefficient statistics:
  Matrix range     [1e+00, 1e+04]
  Objective range  [1e+00, 1e+00]
  Bounds range     [1e+00, 1e+04]
  RHS range        [1e+00, 1e+04]

Warning: Completing partial solution with 180 unfixed non-continuous variables out of 180
User MIP start produced solution with objective 50 (0.02s)
Loaded user MIP start with objective 50

Presolve removed 365 rows and 22 columns
Presolve time: 0.00s
Presolved: 1670 rows, 179 columns, 4921 nonzeros
Variable types: 21 continuous, 158 integer (158 binary)

Root relaxation: objective 3.500000e+01, 199 iterations, 0.02 seconds (0.01 work units)

    Nodes    |    Current Node    |     Objective Bounds      |     Work
 Expl Unexpl |  Obj  Depth IntInf | Incumbent    BestBd   Gap | It/Node Time

     0     0   35.00000    0    2   50.00000   35.00000  30.0%     -    0s
     0     0   35.00000    0    2   50.00000   35.00000  30.0%     -    0s
     0     2   35.00000    0    2   50.00000   35.00000  30.0%     -    0s
*  134   131               9      44.0000000   35.00000  20.5%  15.5    0s
*  370   407              31      42.0000000   35.00000  16.7%  14.8    0s
*  794   546              26      41.0000000   35.00000  14.6%  12.7    0s
* 5515  1009              36      39.0000000   35.00000  10.3%  11.4    0s

Explored 11477 nodes (99668 simplex iterations) in 0.48 seconds (0.58 work units)
Thread count was 18 (of 36 available processors)

Solution count 5: 39 41 42 ... 50

Optimal solution found (tolerance 1.00e-04)
Best objective 3.900000000000e+01, best bound 3.900000000000e+01, gap 0.0000%

Gurobi 11.0.0 (win64) logging started Thu May 16 09:41:41 2024

Set parameter LogFile to value "./Results/StripPacking-SequencePairRuns/Logs/SUsp-010-StripPacking-10.log"
Set parameter TimeLimit to value 10800
Set parameter Cuts to value 0
Set parameter Presolve to value 1
Set parameter Heuristics to value 0
Set parameter LPWarmStart to value 2
Gurobi Optimizer version 11.0.0 build v11.0.0rc2 (win64 - Windows 10.0 (19045.2))

CPU model: Intel(R) Core(TM) i9-10980XE CPU @ 3.00GHz, instruction set [SSE2|AVX|AVX2|AVX512]
Thread count: 18 physical cores, 36 logical processors, using up to 18 threads

Optimize a model with 2035 rows, 201 columns and 5780 nonzeros
Model fingerprint: 0x4765ca78
Variable types: 21 continuous, 180 integer (180 binary)
Coefficient statistics:
  Matrix range     [1e+00, 1e+04]
  Objective range  [1e+00, 1e+00]
  Bounds range     [1e+00, 1e+04]
  RHS range        [1e+00, 1e+04]

Warning: Completing partial solution with 180 unfixed non-continuous variables out of 180
User MIP start produced solution with objective 50 (0.00s)
Loaded user MIP start with objective 50

Presolve removed 365 rows and 22 columns
Presolve time: 0.00s
Presolved: 1670 rows, 179 columns, 4921 nonzeros
Variable types: 21 continuous, 158 integer (158 binary)

Root relaxation: objective 3.500000e+01, 199 iterations, 0.02 seconds (0.01 work units)

    Nodes    |    Current Node    |     Objective Bounds      |     Work
 Expl Unexpl |  Obj  Depth IntInf | Incumbent    BestBd   Gap | It/Node Time

     0     0   35.00000    0    2   50.00000   35.00000  30.0%     -    0s
     0     0   35.00000    0    2   50.00000   35.00000  30.0%     -    0s
     0     2   35.00000    0    2   50.00000   35.00000  30.0%     -    0s
*  134   131               9      44.0000000   35.00000  20.5%  15.5    0s
*  370   407              31      42.0000000   35.00000  16.7%  14.8    0s
*  794   546              26      41.0000000   35.00000  14.6%  12.7    0s
* 5515  1009              36      39.0000000   35.00000  10.3%  11.4    0s

Explored 11477 nodes (99668 simplex iterations) in 0.48 seconds (0.58 work units)
Thread count was 18 (of 36 available processors)

Solution count 5: 39 41 42 ... 50

Optimal solution found (tolerance 1.00e-04)
Best objective 3.900000000000e+01, best bound 3.900000000000e+01, gap 0.0000%

Gurobi 11.0.0 (win64) logging started Thu May 16 09:54:09 2024

Set parameter LogFile to value "./Results/StripPacking-SequencePairRuns/Logs/SUsp-010-StripPacking-10.log"
Set parameter TimeLimit to value 10800
Set parameter Cuts to value 0
Set parameter Presolve to value 1
Set parameter Heuristics to value 0
Set parameter LPWarmStart to value 2
Gurobi Optimizer version 11.0.0 build v11.0.0rc2 (win64 - Windows 10.0 (19045.2))

CPU model: Intel(R) Core(TM) i9-10980XE CPU @ 3.00GHz, instruction set [SSE2|AVX|AVX2|AVX512]
Thread count: 18 physical cores, 36 logical processors, using up to 18 threads

Optimize a model with 2035 rows, 201 columns and 5780 nonzeros
Model fingerprint: 0x4765ca78
Variable types: 21 continuous, 180 integer (180 binary)
Coefficient statistics:
  Matrix range     [1e+00, 1e+04]
  Objective range  [1e+00, 1e+00]
  Bounds range     [1e+00, 1e+04]
  RHS range        [1e+00, 1e+04]

Warning: Completing partial solution with 180 unfixed non-continuous variables out of 180
User MIP start produced solution with objective 50 (0.00s)
Loaded user MIP start with objective 50

Presolve removed 365 rows and 22 columns
Presolve time: 0.00s
Presolved: 1670 rows, 179 columns, 4921 nonzeros
Variable types: 21 continuous, 158 integer (158 binary)

Root relaxation: objective 3.500000e+01, 199 iterations, 0.02 seconds (0.01 work units)

    Nodes    |    Current Node    |     Objective Bounds      |     Work
 Expl Unexpl |  Obj  Depth IntInf | Incumbent    BestBd   Gap | It/Node Time

     0     0   35.00000    0    2   50.00000   35.00000  30.0%     -    0s
     0     0   35.00000    0    2   50.00000   35.00000  30.0%     -    0s
     0     2   35.00000    0    2   50.00000   35.00000  30.0%     -    0s
*  134   131               9      44.0000000   35.00000  20.5%  15.5    0s
*  370   407              31      42.0000000   35.00000  16.7%  14.8    0s
*  794   546              26      41.0000000   35.00000  14.6%  12.7    0s
* 5515  1009              36      39.0000000   35.00000  10.3%  11.4    0s

Explored 11477 nodes (99668 simplex iterations) in 0.51 seconds (0.58 work units)
Thread count was 18 (of 36 available processors)

Solution count 5: 39 41 42 ... 50

Optimal solution found (tolerance 1.00e-04)
Best objective 3.900000000000e+01, best bound 3.900000000000e+01, gap 0.0000%

Gurobi 11.0.0 (win64) logging started Fri May 17 19:13:34 2024

Set parameter LogFile to value "./Results/StripPacking-SequencePairRuns/Logs/SUsp-010-StripPacking-10.log"
Set parameter TimeLimit to value 10800
Set parameter Cuts to value 0
Set parameter Presolve to value 1
Set parameter Heuristics to value 0
Set parameter LPWarmStart to value 2
Gurobi Optimizer version 11.0.0 build v11.0.0rc2 (win64 - Windows 10.0 (19045.2))

CPU model: Intel(R) Core(TM) i9-10980XE CPU @ 3.00GHz, instruction set [SSE2|AVX|AVX2|AVX512]
Thread count: 18 physical cores, 36 logical processors, using up to 18 threads

Optimize a model with 2035 rows, 201 columns and 5780 nonzeros
Model fingerprint: 0x4765ca78
Variable types: 21 continuous, 180 integer (180 binary)
Coefficient statistics:
  Matrix range     [1e+00, 1e+04]
  Objective range  [1e+00, 1e+00]
  Bounds range     [1e+00, 1e+04]
  RHS range        [1e+00, 1e+04]

Warning: Completing partial solution with 180 unfixed non-continuous variables out of 180
User MIP start produced solution with objective 50 (0.00s)
Loaded user MIP start with objective 50

Presolve removed 365 rows and 22 columns
Presolve time: 0.00s
Presolved: 1670 rows, 179 columns, 4921 nonzeros
Variable types: 21 continuous, 158 integer (158 binary)

Root relaxation: objective 3.500000e+01, 199 iterations, 0.00 seconds (0.01 work units)

    Nodes    |    Current Node    |     Objective Bounds      |     Work
 Expl Unexpl |  Obj  Depth IntInf | Incumbent    BestBd   Gap | It/Node Time

     0     0   35.00000    0    2   50.00000   35.00000  30.0%     -    0s
     0     0   35.00000    0    2   50.00000   35.00000  30.0%     -    0s
     0     2   35.00000    0    2   50.00000   35.00000  30.0%     -    0s
*  134   131               9      44.0000000   35.00000  20.5%  15.5    0s
*  370   407              31      42.0000000   35.00000  16.7%  14.8    0s
*  794   546              26      41.0000000   35.00000  14.6%  12.7    0s
* 5515  1009              36      39.0000000   35.00000  10.3%  11.4    0s

Explored 11477 nodes (99668 simplex iterations) in 0.52 seconds (0.58 work units)
Thread count was 18 (of 36 available processors)

Solution count 5: 39 41 42 ... 50

Optimal solution found (tolerance 1.00e-04)
Best objective 3.900000000000e+01, best bound 3.900000000000e+01, gap 0.0000%
